p cnf 42 268
-1 4 0
-1 6 0
-1 -2 0
-8 11 0
-8 13 0
-8 -9 0
-15 18 0
-15 20 0
-15 -16 0
-22 25 0
-22 27 0
-22 -23 0
-29 32 0
-29 34 0
-29 -30 0
-36 39 0
-36 41 0
-36 -37 0
-1 4 0
-1 6 0
-1 -2 0
-8 11 0
-8 13 0
-8 -9 0
-15 18 0
-15 20 0
-15 -16 0
-22 25 0
-22 27 0
-22 -23 0
-29 32 0
-29 34 0
-29 -30 0
-36 39 0
-36 41 0
-36 -37 0
-5 2 0
-5 4 0
-5 -6 0
-12 9 0
-12 11 0
-12 -13 0
-19 16 0
-19 18 0
-19 -20 0
-26 23 0
-26 25 0
-26 -27 0
-33 30 0
-33 32 0
-33 -34 0
-40 37 0
-40 39 0
-40 -41 0
-1 4 0
-1 6 0
-1 -2 0
-8 11 0
-8 13 0
-8 -9 0
-15 18 0
-15 20 0
-15 -16 0
-22 25 0
-22 27 0
-22 -23 0
-29 32 0
-29 34 0
-29 -30 0
-36 39 0
-36 41 0
-36 -37 0
-5 2 0
-5 4 0
-5 -6 0
-12 9 0
-12 11 0
-12 -13 0
-19 16 0
-19 18 0
-19 -20 0
-26 23 0
-26 25 0
-26 -27 0
-33 30 0
-33 32 0
-33 -34 0
-40 37 0
-40 39 0
-40 -41 0
-3 2 0
-3 6 0
-3 -4 0
-10 9 0
-10 13 0
-10 -11 0
-17 16 0
-17 20 0
-17 -18 0
-24 23 0
-24 27 0
-24 -25 0
-31 30 0
-31 34 0
-31 -32 0
-38 37 0
-38 41 0
-38 -39 0
-1 4 0
-1 6 0
-1 -2 0
-8 11 0
-8 13 0
-8 -9 0
-15 18 0
-15 20 0
-15 -16 0
-22 25 0
-22 27 0
-22 -23 0
-29 32 0
-29 34 0
-29 -30 0
-36 39 0
-36 41 0
-36 -37 0
-5 2 0
-5 4 0
-5 -6 0
-12 9 0
-12 11 0
-12 -13 0
-19 16 0
-19 18 0
-19 -20 0
-26 23 0
-26 25 0
-26 -27 0
-33 30 0
-33 32 0
-33 -34 0
-40 37 0
-40 39 0
-40 -41 0
-3 2 0
-3 6 0
-3 -4 0
-10 9 0
-10 13 0
-10 -11 0
-17 16 0
-17 20 0
-17 -18 0
-24 23 0
-24 27 0
-24 -25 0
-31 30 0
-31 34 0
-31 -32 0
-38 37 0
-38 41 0
-38 -39 0
-1 -7 0
-5 7 0
-7 2 0
7 6 0
-8 -14 0
-12 14 0
-14 9 0
14 13 0
-15 -21 0
-19 21 0
-21 16 0
21 20 0
-22 -28 0
-26 28 0
-28 23 0
28 27 0
-29 -35 0
-33 35 0
-35 30 0
35 34 0
-36 -42 0
-40 42 0
-42 37 0
42 41 0
7 0
11 0
25 0
32 0
9 0
23 0
30 0
13 0
27 0
34 0
2 0
4 0
6 0
14 0
4 0
18 0
25 0
32 0
39 0
6 0
20 0
27 0
34 0
41 0
9 0
11 0
13 0
28 0
4 0
11 0
32 0
2 0
9 0
30 0
6 0
13 0
34 0
23 0
25 0
27 0
-35 0
4 0
11 0
18 0
25 0
39 0
6 0
13 0
20 0
27 0
41 0
2 9 0
2 16 0
2 23 0
2 37 0
1 8 15 22 36 0
9 2 0
9 16 0
9 23 0
9 37 0
8 1 15 22 36 0
16 2 0
16 9 0
16 23 0
16 37 0
15 1 8 22 36 0
23 2 0
23 9 0
23 16 0
23 37 0
22 1 8 15 36 0
37 2 0
37 9 0
37 16 0
37 23 0
36 1 8 15 22 0
30 0
32 0
34 0
21 0
-42 0
15 17 19 0
